100
3560
98 47
83 95
83 169
43 119
7 42
100 54
100 158
38 11
23 195
44 122
9 123
93 187
9 140
10 158
63 78
50 82
61 105
53 18
57 43
76 162
59 112
19 70
44 101
100 44
81 73
39 79
35 11
90 152
82 73
39 95
67 157
15 186
27 113
94 59
10 45
3 199
26 104
47 138
13 85
71 105
11 114
14 157
89 71
51 122
38 45
19 186
24 144
95 61
48 153
53 123
75 138
29 19
64 100
74 111
3 14
31 134
23 45
72 192
47 91
2 38
85 111
78 146
89 27
59 96
35 114
97 161
24 112
80 13
37 193
88 189
55 21
56 143
55 74
7 49
100 92
1 135
75 99
7 147
60 43
41 160
98 13
27 72
59 103
43 102
79 111
1 144
29 104
38 35
92 75
94 30
3 34
45 148
18 159
95 30
79 49
54 145
100 75
11 151
64 175
5 104
